* ENCODING=ISO-8859-1
NAME          CPLEX
ROWS
 N  obj1    
 G  c1      
 G  c2      
 G  c3      
 G  c4      
 G  c5      
 G  c6      
 G  c7      
 G  c8      
 G  c9      
 G  c10     
 G  c11     
 G  c12     
 G  c13     
 G  c14     
 G  c15     
 G  c16     
 G  c17     
 G  c18     
 G  c19     
 G  c20     
 G  c21     
 G  c22     
 G  c23     
 G  c24     
 G  c25     
COLUMNS
    MARK0000  'MARKER'                 'INTORG'
    x1        obj1                            1
    x1        c13                           284
    x1        c20                           744
    x2        obj1                            1
    x2        c3                            367
    x2        c15                           222
    x2        c20                           248
    x3        obj1                            1
    x3        c10                           445
    x4        obj1                            1
    x4        c8                            655
    x5        obj1                            1
    x5        c4                            912
    x5        c7                            670
    x5        c9                            102
    x5        c13                           303
    x5        c18                           293
    x5        c24                           194
    x6        obj1                            1
    x6        c17                           365
    x7        obj1                            1
    x7        c12                           759
    x8        obj1                            1
    x8        c9                            517
    x8        c19                           609
    x9        obj1                            1
    x9        c5                            598
    x9        c16                           686
    x10       obj1                            1
    x10       c4                            806
    x10       c6                            743
    x11       obj1                            1
    x11       c14                           928
    x12       obj1                            1
    x12       c9                            698
    x13       obj1                            1
    x13       c11                           909
    x13       c19                           809
    x14       obj1                            1
    x14       c21                           181
    x14       c25                           265
    x15       obj1                            1
    x15       c1                            366
    x15       c10                           471
    x15       c17                           312
    x15       c19                           587
    x16       obj1                            1
    x16       c1                            313
    x16       c25                           212
    x17       obj1                            1
    x17       c6                            716
    x17       c16                           394
    x17       c23                           543
    x18       obj1                            1
    x18       c14                           555
    x19       obj1                            1
    x19       c18                           611
    x19       c21                           324
    x20       obj1                            1
    x20       c3                            999
    x21       obj1                            1
    x21       c8                            634
    x21       c17                           787
    x21       c19                           638
    x21       c24                           815
    x22       obj1                            1
    x22       c9                            210
    x22       c10                           104
    x22       c23                           946
    x22       c25                           974
    x23       obj1                            1
    x23       c2                            840
    x23       c9                            195
    x23       c15                           492
    x23       c18                           839
    x24       obj1                            1
    x24       c4                            829
    x24       c5                            974
    x24       c15                           866
    x25       obj1                            1
    x25       c14                           898
    x25       c22                           668
    x26       obj1                            1
    x26       c2                            564
    x26       c3                            656
    x26       c5                            196
    x26       c16                           890
    x26       c22                           783
    x27       obj1                            1
    x27       c7                            970
    x27       c17                           563
    x28       obj1                            1
    x29       obj1                            1
    x29       c11                           377
    x29       c22                           352
    x30       obj1                            1
    x30       c4                            759
    x30       c6                            467
    x31       obj1                            1
    x31       c12                           805
    x31       c14                           324
    x31       c17                           301
    x32       obj1                            1
    x32       c1                            495
    x32       c11                           372
    x32       c23                           533
    x33       obj1                            1
    x33       c12                           995
    x33       c19                           704
    x33       c20                           567
    x33       c25                           688
    x34       obj1                            1
    x34       c5                            526
    x34       c8                            625
    x34       c12                           181
    x35       obj1                            1
    x35       c18                           667
    x36       obj1                            1
    x36       c21                           685
    x36       c24                           928
    x37       obj1                            1
    x37       c6                            329
    x37       c11                           203
    x37       c14                           783
    x37       c15                           481
    x38       obj1                            1
    x38       c2                            559
    x38       c5                            521
    x38       c7                            194
    x39       obj1                            1
    x39       c1                            196
    x39       c11                           887
    x39       c16                           693
    x40       obj1                            1
    x40       c1                            494
    x40       c3                            237
    x40       c10                           464
    x40       c25                           584
    x41       obj1                            1
    x41       c4                            314
    x41       c14                           408
    x41       c20                           112
    x41       c21                           513
    x41       c22                           569
    x42       obj1                            1
    x42       c11                           495
    x42       c13                           648
    x43       obj1                            1
    x43       c15                           407
    x43       c19                           725
    x44       obj1                            1
    x44       c2                            895
    x44       c10                           336
    x44       c11                           518
    x44       c19                           276
    x44       c21                           593
    x45       obj1                            1
    x45       c4                            895
    x46       obj1                            1
    x46       c6                            797
    x46       c9                            649
    x46       c10                           126
    x46       c15                           511
    x46       c16                           971
    x46       c21                           448
    x47       obj1                            1
    x47       c16                           192
    x48       obj1                            1
    x48       c12                           456
    x48       c21                           772
    x49       obj1                            1
    x49       c5                            233
    x49       c8                            866
    x50       obj1                            1
    x50       c6                            688
    x50       c16                           235
    MARK0001  'MARKER'                 'INTEND'
RHS
    rhs       c1                            932
    rhs       c2                           1429
    rhs       c3                           1130
    rhs       c4                           2258
    rhs       c5                           1524
    rhs       c6                           1870
    rhs       c7                            917
    rhs       c8                           1390
    rhs       c9                           1186
    rhs       c10                           973
    rhs       c11                          1881
    rhs       c12                          1598
    rhs       c13                           618
    rhs       c14                          1948
    rhs       c15                          1490
    rhs       c16                          2031
    rhs       c17                          1164
    rhs       c18                          1205
    rhs       c19                          2174
    rhs       c20                           836
    rhs       c21                          1758
    rhs       c22                          1186
    rhs       c23                          1011
    rhs       c24                           969
    rhs       c25                          1362
BOUNDS
 LI bnd       x1        0
 LI bnd       x2        0
 LI bnd       x3        0
 LI bnd       x4        0
 LI bnd       x5        0
 LI bnd       x6        0
 LI bnd       x7        0
 LI bnd       x8        0
 LI bnd       x9        0
 LI bnd       x10       0
 LI bnd       x11       0
 LI bnd       x12       0
 LI bnd       x13       0
 LI bnd       x14       0
 LI bnd       x15       0
 LI bnd       x16       0
 LI bnd       x17       0
 LI bnd       x18       0
 LI bnd       x19       0
 LI bnd       x20       0
 LI bnd       x21       0
 LI bnd       x22       0
 LI bnd       x23       0
 LI bnd       x24       0
 LI bnd       x25       0
 LI bnd       x26       0
 LI bnd       x27       0
 LI bnd       x28       0
 LI bnd       x29       0
 LI bnd       x30       0
 LI bnd       x31       0
 LI bnd       x32       0
 LI bnd       x33       0
 LI bnd       x34       0
 LI bnd       x35       0
 LI bnd       x36       0
 LI bnd       x37       0
 LI bnd       x38       0
 LI bnd       x39       0
 LI bnd       x40       0
 LI bnd       x41       0
 LI bnd       x42       0
 LI bnd       x43       0
 LI bnd       x44       0
 LI bnd       x45       0
 LI bnd       x46       0
 LI bnd       x47       0
 LI bnd       x48       0
 LI bnd       x49       0
 LI bnd       x50       0
ENDATA
